p cnf 131 373
a 7 9 11 0
d 1 7 0
d 3 9 0
d 5 11 0
d 2 7 0
d 4 7 9 0
d 6 7 9 11 0
d 8 7 9 11 0
d 10 7 9 11 0
d 12 7 9 11 0
d 13 9 0
d 14 7 9 0
d 15 7 9 11 0
d 16 7 9 11 0
d 17 7 9 11 0
d 18 7 9 11 0
d 19 7 9 11 0
d 20 7 9 0
d 21 7 9 11 0
d 22 7 9 11 0
d 23 7 9 11 0
d 24 7 9 11 0
d 25 7 9 11 0
d 26 11 0
d 27 7 9 11 0
d 28 7 9 11 0
d 29 7 9 11 0
d 30 7 9 11 0
d 31 7 9 11 0
d 32 7 9 11 0
d 33 7 9 11 0
d 34 7 9 11 0
d 35 7 9 11 0
d 36 7 9 11 0
d 37 7 9 11 0
d 38 7 9 11 0
d 39 7 9 11 0
d 40 7 9 11 0
d 41 7 9 11 0
d 42 7 0
d 43 7 9 11 0
d 44 7 9 11 0
d 45 7 9 11 0
d 46 7 9 11 0
d 47 7 9 0
d 48 7 9 11 0
d 49 7 9 11 0
d 50 7 9 11 0
d 51 7 9 11 0
d 52 7 9 11 0
d 53 7 9 11 0
d 54 7 9 11 0
d 55 7 9 11 0
d 56 7 9 11 0
d 57 9 0
d 58 7 9 11 0
d 59 7 9 11 0
d 60 7 9 11 0
d 61 7 9 11 0
d 62 7 9 11 0
d 63 7 9 11 0
d 64 7 9 11 0
d 65 7 9 11 0
d 66 7 9 11 0
d 67 7 9 11 0
d 68 7 9 11 0
d 69 7 9 11 0
d 70 7 9 11 0
d 71 7 9 11 0
d 72 7 9 11 0
d 73 7 9 11 0
d 74 7 9 11 0
d 75 7 9 11 0
d 76 7 9 11 0
d 77 7 9 11 0
d 78 7 9 11 0
d 79 7 9 11 0
d 80 7 9 11 0
d 81 7 9 11 0
d 82 7 9 11 0
d 83 7 9 11 0
d 84 7 9 11 0
d 85 7 9 11 0
d 86 7 9 11 0
d 87 7 9 11 0
d 88 7 9 11 0
d 89 7 9 11 0
d 90 7 9 11 0
d 91 7 9 11 0
d 92 11 0
d 93 7 9 11 0
d 94 7 9 11 0
d 95 7 9 11 0
d 96 7 9 11 0
d 97 7 9 11 0
d 98 7 9 11 0
d 99 7 9 11 0
d 100 7 9 11 0
d 101 7 9 11 0
d 102 7 9 11 0
d 103 7 9 11 0
d 104 7 9 11 0
d 105 7 9 11 0
d 106 7 9 11 0
d 107 7 9 11 0
d 108 7 9 11 0
d 109 7 9 11 0
d 110 7 9 11 0
d 111 7 9 11 0
d 112 7 9 11 0
d 113 7 9 11 0
d 114 7 9 11 0
d 115 7 9 11 0
d 116 7 9 11 0
d 117 7 9 11 0
d 118 7 9 11 0
d 119 7 9 11 0
d 120 7 9 11 0
d 121 7 9 11 0
d 122 7 9 11 0
d 123 7 9 11 0
d 124 7 9 11 0
d 125 7 9 11 0
d 126 7 9 11 0
d 127 7 9 11 0
d 128 7 9 11 0
d 129 7 9 0
d 130 7 9 11 0
d 131 7 9 11 0
2 1 0
-2 -1 0
-4 2 0
-4 3 0
4 -2 -3 0
-6 4 0
-6 5 0
6 -4 -5 0
-8 6 0
-8 7 0
8 -6 -7 0
-10 8 0
-10 9 0
10 -8 -9 0
-12 10 0
-12 11 0
12 -10 -11 0
13 3 0
-13 -3 0
-14 1 0
-14 13 0
14 -1 -13 0
-15 14 0
-15 5 0
15 -14 -5 0
-16 15 0
-16 7 0
16 -15 -7 0
-17 16 0
-17 9 0
17 -16 -9 0
-18 17 0
-18 11 0
18 -17 -11 0
19 -12 0
19 -18 0
-19 12 18 0
-20 2 0
-20 13 0
20 -2 -13 0
-21 20 0
-21 5 0
21 -20 -5 0
-22 21 0
-22 7 0
22 -21 -7 0
-23 22 0
-23 9 0
23 -22 -9 0
-24 23 0
-24 11 0
24 -23 -11 0
25 -19 0
25 -24 0
-25 19 24 0
26 5 0
-26 -5 0
-27 4 0
-27 26 0
27 -4 -26 0
-28 27 0
-28 7 0
28 -27 -7 0
-29 28 0
-29 9 0
29 -28 -9 0
-30 29 0
-30 11 0
30 -29 -11 0
31 -25 0
31 -30 0
-31 25 30 0
-32 14 0
-32 26 0
32 -14 -26 0
-33 32 0
-33 7 0
33 -32 -7 0
-34 33 0
-34 9 0
34 -33 -9 0
-35 34 0
-35 11 0
35 -34 -11 0
36 -31 0
36 -35 0
-36 31 35 0
-37 20 0
-37 26 0
37 -20 -26 0
-38 37 0
-38 7 0
38 -37 -7 0
-39 38 0
-39 9 0
39 -38 -9 0
-40 39 0
-40 11 0
40 -39 -11 0
41 -36 0
41 -40 0
-41 36 40 0
42 7 0
-42 -7 0
-43 15 0
-43 42 0
43 -15 -42 0
-44 43 0
-44 9 0
44 -43 -9 0
-45 44 0
-45 11 0
45 -44 -11 0
46 -41 0
46 -45 0
-46 41 45 0
-47 1 0
-47 3 0
47 -1 -3 0
-48 47 0
-48 26 0
48 -47 -26 0
-49 48 0
-49 42 0
49 -48 -42 0
-50 49 0
-50 9 0
50 -49 -9 0
-51 50 0
-51 11 0
51 -50 -11 0
52 -46 0
52 -51 0
-52 46 51 0
-53 27 0
-53 42 0
53 -27 -42 0
-54 53 0
-54 9 0
54 -53 -9 0
-55 54 0
-55 11 0
55 -54 -11 0
56 -52 0
56 -55 0
-56 52 55 0
57 9 0
-57 -9 0
-58 8 0
-58 57 0
58 -8 -57 0
-59 58 0
-59 11 0
59 -58 -11 0
60 -56 0
60 -59 0
-60 56 59 0
-61 16 0
-61 57 0
61 -16 -57 0
-62 61 0
-62 11 0
62 -61 -11 0
63 -60 0
63 -62 0
-63 60 62 0
-64 48 0
-64 7 0
64 -48 -7 0
-65 64 0
-65 57 0
65 -64 -57 0
-66 65 0
-66 11 0
66 -65 -11 0
67 -63 0
67 -66 0
-67 63 66 0
-68 33 0
-68 57 0
68 -33 -57 0
-69 68 0
-69 11 0
69 -68 -11 0
70 -67 0
70 -69 0
-70 67 69 0
-71 38 0
-71 57 0
71 -38 -57 0
-72 71 0
-72 11 0
72 -71 -11 0
73 -70 0
73 -72 0
-73 70 72 0
-74 47 0
-74 5 0
74 -47 -5 0
-75 74 0
-75 42 0
75 -74 -42 0
-76 75 0
-76 57 0
76 -75 -57 0
-77 76 0
-77 11 0
77 -76 -11 0
78 -73 0
78 -77 0
-78 73 77 0
-79 43 0
-79 57 0
79 -43 -57 0
-80 79 0
-80 11 0
80 -79 -11 0
81 -78 0
81 -80 0
-81 78 80 0
-82 49 0
-82 57 0
82 -49 -57 0
-83 82 0
-83 11 0
83 -82 -11 0
84 -81 0
84 -83 0
-84 81 83 0
-85 53 0
-85 57 0
85 -53 -57 0
-86 85 0
-86 11 0
86 -85 -11 0
87 -84 0
87 -86 0
-87 84 86 0
-88 37 0
-88 42 0
88 -37 -42 0
-89 88 0
-89 57 0
89 -88 -57 0
-90 89 0
-90 11 0
90 -89 -11 0
91 -87 0
91 -90 0
-91 87 90 0
92 11 0
-92 -11 0
-93 10 0
-93 92 0
93 -10 -92 0
94 -91 0
94 -93 0
-94 91 93 0
-95 17 0
-95 92 0
95 -17 -92 0
96 -94 0
96 -95 0
-96 94 95 0
-97 39 0
-97 92 0
97 -39 -92 0
98 -96 0
98 -97 0
-98 96 97 0
-99 6 0
-99 42 0
99 -6 -42 0
-100 99 0
-100 9 0
100 -99 -9 0
-101 100 0
-101 92 0
101 -100 -92 0
102 -98 0
102 -101 0
-102 98 101 0
-103 21 0
-103 42 0
103 -21 -42 0
-104 103 0
-104 9 0
104 -103 -9 0
-105 104 0
-105 92 0
105 -104 -92 0
106 -102 0
106 -105 0
-106 102 105 0
-107 54 0
-107 92 0
107 -54 -92 0
108 -106 0
108 -107 0
-108 106 107 0
-109 88 0
-109 9 0
109 -88 -9 0
-110 109 0
-110 92 0
110 -109 -92 0
111 -108 0
111 -110 0
-111 108 110 0
-112 74 0
-112 7 0
112 -74 -7 0
-113 112 0
-113 57 0
113 -112 -57 0
-114 113 0
-114 92 0
114 -113 -92 0
115 -111 0
115 -114 0
-115 111 114 0
-116 61 0
-116 92 0
116 -61 -92 0
117 -115 0
117 -116 0
-117 115 116 0
-118 71 0
-118 92 0
118 -71 -92 0
119 -117 0
119 -118 0
-119 117 118 0
-120 76 0
-120 92 0
120 -76 -92 0
121 -119 0
121 -120 0
-121 119 120 0
-122 103 0
-122 57 0
122 -103 -57 0
-123 122 0
-123 92 0
123 -122 -92 0
124 -121 0
124 -123 0
-124 121 123 0
-125 85 0
-125 92 0
125 -85 -92 0
126 -124 0
126 -125 0
-126 124 125 0
-127 89 0
-127 92 0
127 -89 -92 0
128 -126 0
128 -127 0
-128 126 127 0
129 -7 9 0
129 7 -9 0
-129 -7 -9 0
-129 7 9 0
130 -129 11 0
130 129 -11 0
-130 -129 -11 0
-130 129 11 0
131 -128 -130 0
131 128 130 0
-131 -128 130 0
-131 128 -130 0
131 0
